1 - 1
1 - 2
1 - 3
2 - 4 5
1 - 6
1 - 1
1 - 2
1 - 3
2 - 4 5
1 - 6
1 - 7
1 - 7
1 - 7
2 - 8 9
2 - 8 9
1 - 10
1 - 10
1 - 10
1 - 11
1 - 11
1 - 11
1 - 10
1 - 10
1 - 10
1 - 12
1 - 12
2 - 13 14
2 - 13 14
2 - 13 14
1 - 15
1 - 15
1 - 15
1 - 16
1 - 16
1 - 16
1 - 17
1 - 17
1 - 17
1 - 18
1 - 18
2 - 19 20
2 - 19 20
1 - 21
1 - 21
1 - 21
1 - 22
1 - 22
1 - 22
1 - 23
1 - 23
1 - 23
1 - 24
1 - 24
1 - 24
1 - 25
1 - 25
1 - 25
1 - 25
1 - 26
1 - 26
1 - 27
1 - 27
1 - 27
1 - 27
2 - 28 29
2 - 28 29
2 - 28 29
1 - 30
1 - 30
1 - 31
1 - 31
1 - 31
1 - 32
1 - 32
1 - 32
1 - 33
1 - 33
1 - 33
2 - 34 4
2 - 34 4
2 - 34 4
2 - 35 36
2 - 35 36
2 - 37 38
2 - 37 38
2 - 37 38
1 - 39
1 - 39
1 - 39
3 - 40 41 42
3 - 40 41 42
1 - 43
1 - 43
3 - 44 45 46
3 - 44 45 46
2 - 47 48
2 - 47 48
1 - 49
1 - 49
1 - 49
2 - 50 51
2 - 50 51
1 - 52
1 - 52
1 - 53
1 - 53
1 - 54
1 - 54
1 - 54
1 - 55
1 - 55
1 - 55
1 - 56
1 - 56
1 - 56
1 - 57
1 - 57
1 - 58
1 - 58
2 - 59 60
2 - 59 60
2 - 59 60
1 - 61
1 - 61
1 - 61
1 - 62
1 - 62
1 - 62
1 - 63
1 - 63
1 - 63
1 - 64
1 - 64
1 - 64
1 - 65
1 - 65
1 - 66
1 - 66
1 - 67
1 - 68
1 - 68
1 - 69
1 - 69
1 - 70
1 - 70
1 - 70
1 - 71
1 - 71
1 - 71
1 - 72
1 - 72
